c instance by G2
c solution = 00000
c Known solution cost is 124 
p cnf 5 30
w 23 26 18 46 11
1 -4 -2 0
5 -4 -2 0
-4 3 1 0
-3 -4 -2 0
-3 2 -4 0
2 -3 4 0
-5 -1 4 0
4 3 -5 0
-4 3 2 0
5 -4 -1 0
-3 1 -5 0
-4 1 -3 0
-1 -3 -4 0
-5 2 3 0
4 -2 -3 0
1 5 -2 0
1 2 -5 0
-1 4 -2 0
2 -1 3 0
2 -4 -1 0
4 2 -3 0
1 2 -3 0
3 -4 -1 0
-4 3 -2 0
-4 5 -2 0
4 -1 -3 0
2 -1 -4 0
-1 -2 5 0
-3 -2 -5 0
-4 1 5 0
